c
c Renamed file of pcle.cnf 
c Variables are renamed according to left2right.ord 
c
c Date: Thu Apr 29 14:50:07 PDT 2004 by (jinbo)
c Host: Linux solution 2.4.18-4smp #1 SMP Thu May 2 18:32:34 EDT 2002 i686 unknown
c
c Copyright (c) 2001 Fadi A. Aloul.
c
p cnf 66 156
55 -57 0
56 -57 0
34 -57 0
57 -55 -56 -34 0
-57 58 0
-58 57 0
1 -2 0
38 -2 0
2 -1 -38 0
-2 3 0
-10 -4 0
34 -4 0
4 10 -34 0
-4 3 0
-3 2 4 0
5 -6 0
38 -6 0
6 -5 -38 0
-6 7 0
34 -9 0
-10 -9 0
11 -9 0
9 -34 10 -11 0
-9 7 0
34 -8 0
10 -8 0
-11 -8 0
8 -34 -10 11 0
-8 7 0
-7 6 9 8 0
13 -14 0
38 -14 0
14 -13 -38 0
-14 15 0
34 -18 0
-19 -18 0
17 -18 0
18 -34 19 -17 0
-18 15 0
34 -16 0
19 -16 0
-17 -16 0
16 -34 -19 17 0
-16 15 0
-15 14 18 16 0
28 -27 0
38 -27 0
27 -28 -38 0
-27 26 0
34 -24 0
-23 -24 0
21 -24 0
24 -34 23 -21 0
-24 26 0
34 -25 0
23 -25 0
-21 -25 0
25 -34 -23 21 0
-25 26 0
-26 27 24 25 0
37 -36 0
38 -36 0
36 -37 -38 0
-36 35 0
34 -32 0
-31 -32 0
29 -32 0
32 -34 31 -29 0
-32 35 0
34 -33 0
31 -33 0
-29 -33 0
33 -34 -31 29 0
-33 35 0
-35 36 32 33 0
42 -43 0
38 -43 0
43 -42 -38 0
-43 44 0
34 -46 0
-48 -46 0
47 -46 0
46 -34 48 -47 0
-46 44 0
34 -45 0
48 -45 0
-47 -45 0
45 -34 -48 47 0
-45 44 0
-44 43 46 45 0
66 -65 0
38 -65 0
65 -66 -38 0
-65 64 0
34 -62 0
-61 -62 0
60 -62 0
62 -34 61 -60 0
-62 64 0
34 -63 0
61 -63 0
-60 -63 0
63 -34 -61 60 0
-63 64 0
-64 65 62 63 0
50 -51 0
38 -51 0
51 -50 -38 0
-51 52 0
34 -54 0
-55 -54 0
56 -54 0
54 -34 55 -56 0
-54 52 0
34 -53 0
55 -53 0
-56 -53 0
53 -34 -55 56 0
-53 52 0
-52 51 54 53 0
-38 -39 0
41 -39 0
-40 -39 0
39 38 -41 40 0
-39 34 0
-34 39 0
61 -59 0
60 -59 0
59 -61 -60 0
-59 56 0
-56 59 0
48 -49 0
47 -49 0
49 -48 -47 0
-49 60 0
-60 49 0
31 -30 0
29 -30 0
30 -31 -29 0
-30 47 0
-47 30 0
23 -22 0
21 -22 0
22 -23 -21 0
-22 29 0
-29 22 0
19 -20 0
17 -20 0
20 -19 -17 0
-20 21 0
-21 20 0
10 -12 0
11 -12 0
12 -10 -11 0
-12 17 0
-17 12 0
